c CNF file corresponding to a (partial) station packing problem.
p cnf 4844 229
1 2 3 4 5 6 7 8 9 10 11 12 13 14 0
-1 -2 0
-1 -3 0
-1 -4 0
-1 -5 0
-1 -6 0
-1 -7 0
-1 -8 0
-1 -9 0
-1 -10 0
-1 -11 0
-1 -12 0
-1 -13 0
-1 -14 0
-2 -3 0
-2 -4 0
-2 -5 0
-2 -6 0
-2 -7 0
-2 -8 0
-2 -9 0
-2 -10 0
-2 -11 0
-2 -12 0
-2 -13 0
-2 -14 0
-3 -4 0
-3 -5 0
-3 -6 0
-3 -7 0
-3 -8 0
-3 -9 0
-3 -10 0
-3 -11 0
-3 -12 0
-3 -13 0
-3 -14 0
-4 -5 0
-4 -6 0
-4 -7 0
-4 -8 0
-4 -9 0
-4 -10 0
-4 -11 0
-4 -12 0
-4 -13 0
-4 -14 0
-5 -6 0
-5 -7 0
-5 -8 0
-5 -9 0
-5 -10 0
-5 -11 0
-5 -12 0
-5 -13 0
-5 -14 0
-6 -7 0
-6 -8 0
-6 -9 0
-6 -10 0
-6 -11 0
-6 -12 0
-6 -13 0
-6 -14 0
-7 -8 0
-7 -9 0
-7 -10 0
-7 -11 0
-7 -12 0
-7 -13 0
-7 -14 0
-8 -9 0
-8 -10 0
-8 -11 0
-8 -12 0
-8 -13 0
-8 -14 0
-9 -10 0
-9 -11 0
-9 -12 0
-9 -13 0
-9 -14 0
-10 -11 0
-10 -12 0
-10 -13 0
-10 -14 0
-11 -12 0
-11 -13 0
-11 -14 0
-12 -13 0
-12 -14 0
-13 -14 0
4828 4829 4830 4831 4832 4833 4834 4835 4836 4837 4838 4839 4840 4841 4842 4843 4844 0
-4828 -4829 0
-4828 -4830 0
-4828 -4831 0
-4828 -4832 0
-4828 -4833 0
-4828 -4834 0
-4828 -4835 0
-4828 -4836 0
-4828 -4837 0
-4828 -4838 0
-4828 -4839 0
-4828 -4840 0
-4828 -4841 0
-4828 -4842 0
-4828 -4843 0
-4828 -4844 0
-4829 -4830 0
-4829 -4831 0
-4829 -4832 0
-4829 -4833 0
-4829 -4834 0
-4829 -4835 0
-4829 -4836 0
-4829 -4837 0
-4829 -4838 0
-4829 -4839 0
-4829 -4840 0
-4829 -4841 0
-4829 -4842 0
-4829 -4843 0
-4829 -4844 0
-4830 -4831 0
-4830 -4832 0
-4830 -4833 0
-4830 -4834 0
-4830 -4835 0
-4830 -4836 0
-4830 -4837 0
-4830 -4838 0
-4830 -4839 0
-4830 -4840 0
-4830 -4841 0
-4830 -4842 0
-4830 -4843 0
-4830 -4844 0
-4831 -4832 0
-4831 -4833 0
-4831 -4834 0
-4831 -4835 0
-4831 -4836 0
-4831 -4837 0
-4831 -4838 0
-4831 -4839 0
-4831 -4840 0
-4831 -4841 0
-4831 -4842 0
-4831 -4843 0
-4831 -4844 0
-4832 -4833 0
-4832 -4834 0
-4832 -4835 0
-4832 -4836 0
-4832 -4837 0
-4832 -4838 0
-4832 -4839 0
-4832 -4840 0
-4832 -4841 0
-4832 -4842 0
-4832 -4843 0
-4832 -4844 0
-4833 -4834 0
-4833 -4835 0
-4833 -4836 0
-4833 -4837 0
-4833 -4838 0
-4833 -4839 0
-4833 -4840 0
-4833 -4841 0
-4833 -4842 0
-4833 -4843 0
-4833 -4844 0
-4834 -4835 0
-4834 -4836 0
-4834 -4837 0
-4834 -4838 0
-4834 -4839 0
-4834 -4840 0
-4834 -4841 0
-4834 -4842 0
-4834 -4843 0
-4834 -4844 0
-4835 -4836 0
-4835 -4837 0
-4835 -4838 0
-4835 -4839 0
-4835 -4840 0
-4835 -4841 0
-4835 -4842 0
-4835 -4843 0
-4835 -4844 0
-4836 -4837 0
-4836 -4838 0
-4836 -4839 0
-4836 -4840 0
-4836 -4841 0
-4836 -4842 0
-4836 -4843 0
-4836 -4844 0
-4837 -4838 0
-4837 -4839 0
-4837 -4840 0
-4837 -4841 0
-4837 -4842 0
-4837 -4843 0
-4837 -4844 0
-4838 -4839 0
-4838 -4840 0
-4838 -4841 0
-4838 -4842 0
-4838 -4843 0
-4838 -4844 0
-4839 -4840 0
-4839 -4841 0
-4839 -4842 0
-4839 -4843 0
-4839 -4844 0
-4840 -4841 0
-4840 -4842 0
-4840 -4843 0
-4840 -4844 0
-4841 -4842 0
-4841 -4843 0
-4841 -4844 0
-4842 -4843 0
-4842 -4844 0
-4843 -4844 0
